% seed = 0

mint = 38;
% maxt = 245;

nActs = 92;
dur = [0,1,3,7,2,1,2,2,2,6,1,2,3,1,4,3,1,5,3,3,2,1,2,1,6,3,3,3,2,2,3,2,2,4,4,1,2,3,4,3,3,3,2,3,1,4,3,1,3,2,1,2,3,5,3,1,3,2,4,1,4,4,2,2,4,3,4,3,2,3,3,2,2,4,4,3,1,3,3,5,5,4,3,1,4,2,5,1,2,1,1,0];

nSkills = 9;
sreq = [| 0,0,0,0,0,0,0,0,0,
	| 0,0,0,0,0,0,1,0,0,
	| 0,0,0,0,0,0,0,1,0,
	| 0,0,0,0,0,0,0,2,0,
	| 0,0,0,0,0,3,0,0,0,
	| 0,0,0,0,0,1,0,0,0,
	| 0,1,0,0,1,0,0,0,0,
	| 0,0,0,1,0,1,0,1,0,
	| 0,0,0,0,0,1,0,0,0,
	| 0,0,0,0,1,1,0,0,0,
	| 0,0,0,0,0,0,1,0,0,
	| 0,0,0,0,0,1,0,0,0,
	| 0,0,0,0,1,0,0,0,0,
	| 0,0,0,0,0,1,0,0,0,
	| 0,0,0,0,1,0,2,0,0,
	| 0,0,1,0,0,1,0,1,0,
	| 0,0,0,0,0,2,1,0,0,
	| 0,0,0,1,0,0,0,0,0,
	| 0,0,0,0,0,1,0,0,0,
	| 0,0,0,0,0,1,0,0,0,
	| 0,0,0,1,0,1,0,0,0,
	| 0,0,0,1,0,1,0,1,0,
	| 0,0,0,0,0,1,0,0,0,
	| 0,1,0,0,0,1,0,1,0,
	| 0,0,0,0,0,1,0,2,0,
	| 0,0,0,0,0,1,1,0,0,
	| 0,1,0,0,0,1,0,1,0,
	| 0,0,0,0,1,0,0,0,0,
	| 0,0,0,0,0,0,0,2,0,
	| 0,0,1,0,0,0,0,1,0,
	| 0,0,0,0,1,0,0,0,0,
	| 0,0,1,0,0,0,0,0,0,
	| 0,0,1,0,0,0,0,1,0,
	| 0,0,0,0,0,1,0,1,0,
	| 0,0,0,0,0,1,0,0,0,
	| 0,0,1,0,0,1,0,0,0,
	| 0,0,1,0,0,1,0,0,0,
	| 0,0,0,0,0,1,0,0,0,
	| 0,0,1,0,0,1,0,1,0,
	| 0,0,0,0,1,0,0,0,0,
	| 0,0,0,0,0,1,0,0,0,
	| 0,0,0,0,0,0,0,1,0,
	| 0,0,0,0,0,1,0,1,0,
	| 0,0,0,1,0,2,0,0,0,
	| 0,0,1,0,0,0,0,1,0,
	| 0,0,1,1,0,0,1,0,0,
	| 0,0,0,0,0,1,0,0,0,
	| 0,0,0,0,0,0,2,0,0,
	| 0,0,0,0,0,2,1,0,0,
	| 0,0,0,0,0,0,0,2,1,
	| 0,0,0,0,1,1,0,1,0,
	| 0,1,0,0,1,0,0,0,0,
	| 0,0,0,0,0,3,0,0,0,
	| 0,0,0,0,0,1,0,0,0,
	| 0,0,1,0,0,1,0,0,0,
	| 0,0,0,1,1,1,0,0,0,
	| 0,0,0,0,1,0,0,0,0,
	| 0,0,0,0,0,1,0,0,0,
	| 0,0,0,1,0,0,0,0,0,
	| 0,1,0,0,0,1,0,0,0,
	| 0,0,0,0,0,2,0,1,0,
	| 0,0,0,0,0,0,0,1,0,
	| 0,0,1,0,0,1,1,0,0,
	| 0,0,0,0,0,1,0,0,0,
	| 0,1,0,0,0,1,0,0,0,
	| 0,0,0,1,0,1,0,1,0,
	| 0,0,0,1,0,0,1,0,0,
	| 1,0,1,0,0,0,0,0,0,
	| 0,0,1,0,1,0,0,1,0,
	| 0,0,0,0,0,1,0,1,0,
	| 0,0,0,0,0,1,0,1,0,
	| 0,0,0,0,0,1,1,0,0,
	| 0,0,0,0,0,0,1,0,0,
	| 0,0,0,0,1,1,1,0,0,
	| 0,0,0,0,0,0,0,1,0,
	| 0,0,0,0,0,2,0,0,0,
	| 0,0,0,0,0,0,0,1,0,
	| 0,0,0,0,2,1,0,0,0,
	| 0,0,0,0,0,1,0,0,0,
	| 0,1,0,0,0,1,0,0,0,
	| 0,0,0,0,0,2,0,1,0,
	| 0,0,0,0,1,0,0,2,0,
	| 1,0,0,0,0,0,0,0,0,
	| 0,0,1,0,0,0,0,0,0,
	| 0,0,0,0,0,2,0,1,0,
	| 0,1,0,0,0,0,0,2,0,
	| 0,0,0,1,0,1,1,0,0,
	| 0,0,0,0,1,1,0,1,0,
	| 0,1,0,0,0,0,0,0,0,
	| 0,1,0,0,0,0,0,0,0,
	| 0,1,0,0,0,0,0,2,0,
	| 0,0,0,0,0,0,0,0,0, |];

% SumOfsreq = 175;

nResources = 11;
mastery = [| false,false,false,true,true,true,false,false,false,
	| false,false,false,false,true,true,true,true,true,
	| false,false,false,false,false,false,true,true,true,
	| false,false,false,true,true,true,false,true,true,
	| false,false,false,false,false,true,false,false,true,
	| false,true,true,false,false,false,true,true,true,
	| false,true,true,false,false,false,false,false,false,
	| false,false,false,false,false,false,true,true,true,
	| false,false,false,false,false,true,false,false,false,
	| true,true,true,true,true,true,false,true,true,
	| false,false,false,false,false,true,false,false,false, |];

nPrecs = 166;
pred = [1,1,1,2,2,2,3,3,3,4,4,4,5,5,5,6,6,6,7,7,7,8,8,9,9,10,11,12,12,13,13,13,14,14,14,15,16,16,16,17,18,18,18,19,20,20,21,22,22,23,23,24,24,24,25,25,26,26,26,27,27,27,28,28,28,29,29,30,30,30,31,31,32,33,33,33,34,35,35,35,36,36,36,37,37,37,38,39,39,39,40,40,40,41,41,41,42,43,43,43,44,45,46,46,47,47,48,48,49,50,51,52,52,52,53,53,54,54,55,56,57,57,58,58,59,59,60,60,61,62,62,63,64,64,64,65,65,66,67,68,69,70,71,72,72,73,74,75,76,77,78,78,79,80,81,81,82,83,84,85,86,87,88,89,90,91];
succ = [2,3,4,18,5,6,35,14,32,9,24,16,12,7,48,10,22,8,17,11,20,27,13,19,15,77,52,41,34,51,30,47,26,23,88,53,17,89,59,44,29,59,21,85,25,55,54,27,46,33,41,25,27,28,34,60,57,36,38,52,69,39,81,66,40,52,30,68,38,31,60,87,61,49,57,61,36,76,37,54,91,70,78,82,84,72,42,49,57,74,42,43,75,50,76,71,69,65,80,56,45,50,58,62,75,69,65,73,55,74,64,60,77,63,73,64,70,78,71,79,84,76,61,88,67,79,73,79,63,90,63,66,66,67,78,68,70,91,80,74,83,82,75,81,83,83,84,91,80,88,81,85,82,87,89,86,86,86,85,87,90,90,89,92,92,92];

nUnrels = 2887;
unpred = [2,2,2,2,2,2,2,2,2,2,2,2,2,2,2,2,2,2,2,2,3,3,3,3,3,3,3,3,3,3,3,3,3,3,3,3,3,3,3,3,3,3,3,3,3,3,3,3,3,3,3,3,3,3,3,3,3,3,3,3,3,3,3,3,3,3,3,3,3,4,4,4,4,4,4,4,4,4,4,4,4,4,4,4,4,4,4,4,4,4,4,4,4,4,4,4,4,4,4,4,4,4,5,5,5,5,5,5,5,5,5,5,5,5,5,5,5,5,5,5,5,5,5,5,5,5,5,5,5,5,5,5,5,5,5,5,5,5,5,5,5,5,5,5,5,5,5,6,6,6,6,6,6,6,6,6,6,6,6,6,6,6,6,6,6,6,6,6,6,6,6,6,6,6,6,6,6,6,6,6,6,6,6,6,6,7,7,7,7,7,7,7,7,7,7,7,7,7,7,7,7,7,7,7,7,7,7,7,7,7,7,7,7,7,7,7,7,7,7,7,7,7,7,7,7,7,7,7,7,7,7,7,7,7,7,7,8,8,8,8,8,8,8,8,8,8,8,8,8,8,8,8,8,8,8,8,8,8,8,8,8,8,8,8,8,8,8,8,8,8,8,8,8,8,8,8,8,8,8,9,9,9,9,9,9,9,9,9,9,9,9,9,9,9,9,9,9,9,9,9,9,9,9,9,9,9,9,9,9,9,9,9,9,9,9,9,9,9,9,9,9,9,9,9,9,9,9,9,9,9,9,9,9,9,9,9,9,9,9,9,9,9,9,9,10,10,10,10,10,10,10,10,10,10,10,10,10,10,10,10,10,10,10,10,10,10,10,10,10,10,10,10,10,10,10,10,10,10,10,10,10,10,10,10,10,10,10,10,10,10,10,10,10,10,10,10,10,10,10,10,10,10,10,10,10,10,10,10,10,10,10,10,10,10,10,10,10,10,10,10,10,10,11,11,11,11,11,11,11,11,11,11,11,11,11,11,11,11,11,11,11,11,11,11,11,11,11,11,11,11,11,11,11,11,11,11,11,11,11,11,11,11,11,11,11,11,11,11,11,11,11,11,11,11,11,11,11,11,11,11,11,11,11,11,11,11,11,11,12,12,12,12,12,12,12,12,12,12,12,12,12,12,12,12,12,12,12,12,12,12,12,12,12,12,12,12,12,12,12,12,12,12,12,12,12,12,12,12,12,12,12,12,12,12,12,12,12,12,12,12,12,12,12,12,12,12,12,13,13,13,13,13,13,13,13,13,13,13,13,13,13,13,13,13,13,13,13,13,13,13,13,13,13,13,13,13,13,13,13,13,13,13,13,13,13,13,13,13,13,13,13,13,13,13,13,13,13,14,14,14,14,14,14,14,14,14,14,14,14,14,14,14,14,14,14,14,14,14,14,14,14,14,14,14,14,14,14,14,14,14,14,14,14,14,14,14,14,14,14,14,14,15,15,15,15,15,15,15,15,15,15,15,15,15,15,15,15,15,15,15,15,15,15,15,15,15,15,15,15,15,15,15,15,15,15,15,15,15,15,15,15,15,15,15,15,15,15,15,15,15,15,15,15,15,15,15,15,15,15,15,15,15,16,16,16,16,16,16,16,16,16,16,16,16,16,16,16,16,16,16,16,16,16,16,16,16,16,16,16,16,16,16,16,16,16,16,16,16,16,16,16,16,16,16,16,16,16,16,16,16,16,16,16,16,16,16,16,16,16,16,16,17,17,17,17,17,17,17,17,17,17,17,17,17,17,17,17,17,17,17,17,17,17,17,17,17,17,17,17,17,17,17,17,17,17,17,17,17,17,17,17,17,17,17,17,17,17,17,17,17,17,17,17,17,17,17,17,17,17,17,17,17,17,17,17,17,17,18,18,18,18,18,18,18,18,18,18,18,18,18,18,18,18,18,18,18,18,18,18,18,18,18,18,18,18,18,18,18,18,18,18,18,18,18,18,18,18,19,19,19,19,19,19,19,19,19,19,19,19,19,19,19,19,19,19,19,19,19,19,19,19,19,19,19,19,19,19,19,19,19,19,19,19,19,19,19,19,19,19,19,19,19,19,19,19,19,19,19,19,19,19,19,19,19,19,19,19,19,19,19,19,19,19,19,19,19,20,20,20,20,20,20,20,20,20,20,20,20,20,20,20,20,20,20,20,20,20,20,20,20,20,20,20,20,20,20,20,20,20,20,20,20,20,20,20,20,20,20,20,20,20,20,20,20,20,20,20,21,21,21,21,21,21,21,21,21,21,21,21,21,21,21,21,21,21,21,21,21,21,21,21,21,21,21,21,21,21,21,21,21,21,21,21,21,21,21,21,21,21,21,21,21,21,21,21,21,21,21,21,21,21,21,21,21,21,21,21,22,22,22,22,22,22,22,22,22,22,22,22,22,22,22,22,22,22,22,22,22,22,22,22,22,22,22,22,22,22,22,22,22,22,22,22,22,23,23,23,23,23,23,23,23,23,23,23,23,23,23,23,23,23,23,23,23,23,23,23,23,23,23,23,23,23,23,23,23,23,23,23,23,23,23,23,23,23,23,23,23,23,23,23,23,23,24,24,24,24,24,24,24,24,24,24,24,24,24,24,24,24,24,24,24,24,24,24,24,24,24,24,25,25,25,25,25,25,25,25,25,25,25,25,25,25,25,25,25,25,25,25,25,25,25,25,25,25,25,25,25,25,25,25,25,25,25,25,25,25,25,25,25,25,25,25,25,25,25,25,25,25,26,26,26,26,26,26,26,26,26,26,26,26,26,26,26,26,26,26,26,26,26,26,26,26,26,26,26,26,26,26,26,26,26,26,26,26,26,26,26,26,26,26,26,26,26,26,27,27,27,27,27,27,27,27,27,27,27,27,27,27,27,27,27,27,27,27,27,27,27,27,27,27,27,27,27,27,27,27,27,27,27,27,27,28,28,28,28,28,28,28,28,28,28,28,28,28,28,28,28,28,28,28,28,28,28,28,28,28,28,28,28,28,28,28,28,28,28,28,28,28,28,28,28,29,29,29,29,29,29,29,29,29,29,29,29,29,29,29,29,29,29,29,29,29,29,29,29,29,29,29,29,29,29,29,29,29,29,29,29,29,29,30,30,30,30,30,30,30,30,30,30,30,30,30,30,30,30,30,30,30,30,30,30,30,30,30,30,30,30,30,30,30,30,30,30,30,30,30,30,30,30,30,30,30,30,30,31,31,31,31,31,31,31,31,31,31,31,31,31,31,31,31,31,31,31,31,31,31,31,31,31,31,31,31,31,31,31,31,31,31,31,31,31,31,31,31,31,31,31,31,31,31,31,31,31,31,31,31,32,32,32,32,32,32,32,32,32,32,32,32,32,32,32,32,32,32,32,32,32,32,32,32,32,32,32,32,32,32,32,32,32,32,32,32,32,32,32,32,32,32,32,32,32,32,32,32,32,32,32,32,32,32,32,33,33,33,33,33,33,33,33,33,33,33,33,33,33,33,33,33,33,33,33,33,33,33,33,33,33,33,33,33,33,33,33,33,33,33,33,33,33,33,33,33,33,33,34,34,34,34,34,34,34,34,34,34,34,34,34,34,34,34,34,34,34,34,34,34,34,34,34,34,34,34,34,34,34,34,34,34,34,34,34,34,34,34,34,34,34,34,34,34,35,35,35,35,35,35,35,35,35,35,35,35,35,35,35,35,35,35,35,35,35,35,35,35,35,35,35,35,35,35,35,35,35,35,35,35,35,35,35,35,36,36,36,36,36,36,36,36,36,36,36,36,36,36,36,36,36,36,36,36,36,36,36,36,36,36,36,36,36,36,36,36,36,36,36,36,36,36,36,36,36,36,36,36,36,37,37,37,37,37,37,37,37,37,37,37,37,37,37,37,37,37,37,37,37,37,37,37,37,37,37,37,37,37,37,37,37,37,37,37,37,37,37,37,37,37,37,37,37,38,38,38,38,38,38,38,38,38,38,38,38,38,38,38,38,38,38,38,38,38,38,38,38,38,38,38,38,38,38,38,38,38,38,38,38,38,38,38,38,38,38,38,38,38,38,38,38,39,39,39,39,39,39,39,39,39,39,39,39,39,39,39,39,39,39,39,39,39,39,39,39,39,39,39,39,39,39,39,39,39,39,39,39,39,39,39,40,40,40,40,40,40,40,40,40,40,40,40,40,40,40,40,40,40,40,40,40,40,40,40,40,40,40,40,40,40,40,40,41,41,41,41,41,41,41,41,41,41,41,41,41,41,41,41,41,41,41,41,41,41,41,41,41,41,41,41,41,41,41,41,41,41,41,41,41,41,41,42,42,42,42,42,42,42,42,42,42,42,42,42,42,42,42,42,42,42,42,42,42,42,42,42,42,42,42,42,42,42,42,42,42,42,42,42,42,42,42,42,42,42,42,42,43,43,43,43,43,43,43,43,43,43,43,43,43,43,43,43,43,43,43,43,43,43,43,43,43,43,43,43,43,43,43,43,43,43,43,44,44,44,44,44,44,44,44,44,44,44,44,44,44,44,44,44,44,44,44,44,44,44,44,44,44,44,44,44,44,44,44,44,44,44,44,44,44,44,44,45,45,45,45,45,45,45,45,45,45,45,45,45,45,45,45,45,45,45,45,45,45,45,45,45,45,45,45,45,45,45,45,45,45,45,45,45,45,45,45,46,46,46,46,46,46,46,46,46,46,46,46,46,46,46,46,46,46,46,46,46,46,46,46,46,46,46,46,46,46,46,46,46,46,46,46,47,47,47,47,47,47,47,47,47,47,47,47,47,47,47,47,47,47,47,47,47,47,47,47,47,47,47,47,47,47,47,47,47,47,47,47,47,47,48,48,48,48,48,48,48,48,48,48,48,48,48,48,48,48,48,48,48,48,48,48,48,48,48,48,48,48,48,48,48,49,49,49,49,49,49,49,49,49,49,49,49,49,49,49,49,49,49,49,49,49,49,49,49,49,49,49,49,49,49,49,49,49,49,49,49,49,49,50,50,50,50,50,50,50,50,50,50,50,50,50,50,50,50,50,50,50,50,50,50,50,50,50,50,50,50,50,50,50,50,50,50,50,50,51,51,51,51,51,51,51,51,51,51,51,51,51,51,51,51,51,51,51,51,51,51,51,51,51,51,51,51,52,52,52,52,52,52,52,52,52,52,52,52,52,52,52,52,52,52,52,52,52,52,52,52,52,52,53,53,53,53,53,53,53,53,53,53,53,53,53,53,53,53,53,53,53,53,53,53,53,53,54,54,54,54,54,54,54,54,54,54,54,54,54,54,54,54,54,54,54,54,54,54,54,54,54,54,54,54,55,55,55,55,55,55,55,55,55,55,55,55,55,55,55,55,55,55,55,55,55,55,55,55,55,55,55,55,55,55,55,55,55,56,56,56,56,56,56,56,56,56,56,56,56,56,56,56,56,56,56,56,56,56,56,56,56,56,56,56,56,56,56,56,57,57,57,57,57,57,57,57,57,57,57,57,57,57,57,57,57,57,57,57,57,57,57,57,57,57,57,57,58,58,58,58,58,58,58,58,58,58,58,58,58,58,58,58,58,58,58,58,58,58,58,58,58,58,58,59,59,59,59,59,59,59,59,59,59,59,59,59,59,59,59,59,59,59,59,59,59,59,59,59,60,60,60,60,60,60,60,60,60,60,60,60,60,60,60,60,60,60,60,60,60,60,60,60,60,61,61,61,61,61,61,61,61,61,61,61,61,61,61,61,61,61,61,61,61,61,61,61,61,61,61,61,62,62,62,62,62,62,62,62,62,62,62,62,62,62,62,62,62,62,62,62,62,62,62,62,62,63,63,63,63,63,63,63,63,63,63,63,63,63,63,63,63,63,63,63,63,63,63,63,63,63,63,64,64,64,64,64,64,64,64,64,64,64,64,64,64,64,64,65,65,65,65,65,65,65,65,65,65,65,65,65,65,65,65,65,66,66,66,66,66,66,66,66,66,66,66,66,66,66,66,66,66,66,66,66,66,66,66,66,67,67,67,67,67,67,67,67,67,67,67,67,67,67,67,67,67,67,67,67,67,68,68,68,68,68,68,68,68,68,68,68,68,68,68,68,68,68,68,69,69,69,69,69,69,69,69,69,69,69,69,69,69,69,69,69,69,69,70,70,70,70,70,70,70,70,70,70,70,70,70,70,70,70,70,70,71,71,71,71,71,71,71,71,71,71,71,71,71,71,71,71,71,71,72,72,72,72,72,72,72,72,72,72,72,72,72,72,73,73,73,73,73,73,73,73,73,73,73,73,73,73,73,74,74,74,74,74,74,74,74,74,74,74,74,74,75,75,75,75,75,75,75,75,75,75,75,75,75,75,75,76,76,76,76,76,76,76,76,76,76,76,76,77,77,77,77,77,77,77,77,77,77,77,77,78,78,78,78,78,78,78,79,79,79,79,79,79,79,79,79,80,80,80,80,80,80,80,80,80,81,81,81,81,81,81,81,82,82,82,82,82,82,82,83,83,83,83,83,83,84,84,84,84,85,85,85,85,86,86,86,86,87,87,87,88,88,89,89,90];
unsucc = [3,4,9,14,15,16,19,23,24,26,28,32,33,35,37,40,43,53,56,72,4,5,6,7,8,9,10,11,12,13,15,16,17,18,19,20,21,22,24,25,27,28,29,30,31,34,39,40,43,44,45,46,47,48,51,52,53,56,58,59,60,62,64,65,67,68,73,77,79,5,6,7,8,10,11,12,13,14,18,20,21,22,23,26,29,30,31,32,33,35,37,38,41,46,47,48,51,54,58,61,62,72,6,8,9,10,13,14,15,16,18,19,21,22,23,24,26,27,28,29,30,31,32,33,35,37,38,39,40,42,43,46,47,49,51,53,54,56,57,58,59,61,62,64,67,69,72,7,9,11,12,14,15,16,17,18,19,20,21,23,24,25,26,28,29,32,33,34,35,36,37,40,41,43,44,45,48,50,53,54,56,59,65,70,72,8,9,10,12,13,14,15,16,18,19,21,22,23,24,26,27,28,29,30,31,32,33,35,37,38,39,40,41,42,43,46,47,48,49,51,53,54,56,57,58,59,61,62,64,65,67,68,69,72,76,80,9,10,11,12,14,15,16,17,18,19,20,21,22,23,24,25,26,28,29,32,33,34,35,36,37,40,41,43,44,45,46,48,50,53,54,56,58,59,61,62,65,70,72,10,11,12,13,14,16,17,18,20,21,22,23,24,25,26,27,28,29,30,31,32,33,34,35,36,37,38,39,40,41,42,43,44,45,46,47,48,49,50,51,52,54,55,56,57,58,59,60,61,62,63,65,68,69,70,71,72,74,75,76,77,79,82,84,88,11,12,13,14,15,16,17,18,19,20,21,22,23,24,25,26,27,28,29,30,31,32,33,34,35,36,37,38,39,40,41,42,43,44,45,46,47,48,49,50,51,52,53,54,55,56,57,58,59,60,61,62,63,64,65,66,67,68,69,70,71,72,73,74,75,76,78,79,80,81,82,83,84,85,86,87,90,91,12,13,14,15,16,17,18,19,20,21,22,23,24,25,26,27,28,29,30,31,32,33,34,35,36,37,38,39,40,41,42,43,44,45,46,47,48,49,50,51,53,54,55,56,57,58,59,61,62,64,65,67,68,69,70,71,72,74,75,76,78,80,81,84,85,87,13,14,15,16,17,18,19,20,21,22,23,24,25,26,27,28,29,30,31,32,33,35,37,38,39,40,42,43,44,45,46,47,48,49,51,52,53,54,55,56,57,58,59,60,61,62,63,64,65,66,67,68,69,72,73,77,79,83,88,14,15,16,17,18,19,20,21,22,23,24,25,26,27,28,29,32,33,34,35,36,37,39,40,41,43,44,45,46,48,49,50,52,53,54,55,56,57,58,59,61,62,63,65,70,71,72,76,77,88,15,16,17,18,19,20,21,22,24,25,27,28,29,30,31,32,34,35,37,39,40,43,44,45,46,47,48,51,52,53,54,56,58,59,60,62,64,65,67,68,72,73,77,79,16,17,18,19,20,21,22,23,24,25,26,27,28,29,30,31,32,33,34,35,36,37,38,39,40,41,42,43,44,45,46,47,48,49,50,51,52,54,55,56,57,58,59,60,61,62,63,65,68,69,70,71,72,74,75,76,77,79,82,84,88,18,19,20,21,22,23,24,25,26,27,28,29,30,31,32,33,34,35,36,37,38,39,40,41,42,43,46,47,48,49,51,52,53,54,55,56,57,58,60,61,62,63,64,65,66,68,69,70,71,72,73,75,76,77,78,81,83,88,91,18,19,20,21,22,23,24,25,26,27,28,29,30,31,32,33,34,35,36,37,38,39,40,41,42,43,46,47,48,49,51,52,53,54,55,56,57,58,59,60,61,62,63,64,65,66,67,68,69,70,71,72,73,75,76,77,78,79,80,81,82,83,86,88,89,91,19,20,22,23,24,25,26,27,28,32,33,34,35,36,37,39,40,41,43,44,45,46,47,48,49,50,51,53,55,56,57,58,61,62,64,65,71,72,75,76,20,21,22,23,24,25,26,27,28,29,30,31,32,33,34,35,36,37,38,39,40,41,42,43,44,45,46,47,48,49,50,51,52,53,54,55,56,57,58,59,60,61,62,63,64,65,66,67,68,69,70,71,72,73,74,75,76,77,78,79,80,81,82,83,84,86,88,89,91,21,22,23,24,26,27,28,29,30,31,32,33,35,37,38,39,40,41,42,43,44,45,46,47,48,49,50,51,52,53,54,56,57,58,59,61,62,63,64,65,66,67,68,69,72,74,76,77,80,84,88,22,23,24,25,26,27,28,29,30,31,32,33,34,35,36,37,38,39,40,41,42,43,44,45,46,47,48,49,50,51,52,53,55,56,57,58,59,60,61,62,63,64,65,66,67,68,69,71,72,73,74,75,76,77,79,80,83,84,88,91,23,24,25,26,28,29,30,31,32,33,34,35,36,37,38,40,41,42,43,44,45,47,48,50,51,53,54,56,59,64,65,67,68,70,72,78,81,24,25,26,27,28,29,30,31,32,34,35,36,37,38,39,40,42,43,44,45,46,47,48,51,52,53,54,56,58,59,60,62,64,65,67,68,69,70,72,73,77,78,79,81,82,83,86,88,89,26,29,30,31,32,33,35,37,38,41,44,45,46,47,48,50,51,53,54,58,59,61,62,64,67,72,26,27,28,29,30,31,32,33,35,37,38,39,40,41,42,43,44,45,46,47,48,49,50,51,52,53,54,55,56,57,58,59,61,62,63,64,65,66,67,68,69,71,72,74,75,76,77,80,84,88,27,28,29,30,31,32,33,34,35,37,39,40,41,43,44,45,46,47,48,49,50,51,52,53,54,55,56,58,59,60,61,62,63,64,65,66,67,68,71,72,73,74,75,77,79,88,28,29,30,31,32,33,34,35,36,37,38,40,41,42,43,44,45,46,47,48,50,51,53,54,56,58,59,61,62,64,65,67,68,70,72,78,81,29,30,31,32,33,34,35,36,37,38,39,41,44,45,46,47,48,49,50,51,52,53,54,55,57,58,59,60,61,62,63,64,67,71,72,73,76,77,78,88,32,33,34,35,36,37,39,40,41,43,44,45,46,47,48,49,50,51,53,54,55,56,57,58,59,61,62,64,65,67,70,71,72,75,76,78,80,81,32,33,34,35,36,37,39,40,41,43,44,45,46,47,48,49,50,51,52,53,54,55,56,57,58,59,61,62,63,64,65,66,67,70,71,72,75,76,77,78,80,81,88,89,91,32,33,34,35,36,37,38,39,40,41,42,43,44,45,46,47,48,49,50,51,52,53,54,55,56,57,58,59,61,62,63,64,65,66,67,68,69,70,71,72,74,75,76,77,78,80,81,84,85,88,89,91,33,34,35,36,37,38,39,40,41,42,43,44,45,46,47,48,49,50,51,52,53,54,55,56,57,58,59,60,62,64,65,67,68,69,70,71,72,73,74,75,76,77,78,79,80,81,82,83,84,85,86,87,88,89,90,34,35,36,37,38,39,40,41,42,43,44,45,46,47,48,50,51,52,53,54,56,58,59,60,62,64,65,67,68,69,70,72,73,74,77,78,79,81,82,83,86,88,89,35,37,38,39,40,41,42,43,44,45,46,47,48,49,50,51,52,53,54,55,56,57,58,59,60,61,62,63,64,65,66,67,68,69,71,72,73,74,75,76,77,79,80,83,84,88,36,38,39,40,41,42,43,44,45,46,47,48,49,50,51,52,53,55,56,57,58,59,60,61,62,63,64,65,66,67,68,69,71,73,74,75,77,79,88,91,37,38,39,40,41,42,43,44,45,46,47,48,49,50,51,52,53,54,55,56,57,58,59,60,61,62,63,64,65,66,67,68,69,71,72,73,74,75,76,77,79,80,83,84,88,38,39,40,41,42,43,44,45,46,47,48,49,50,51,52,53,54,55,56,57,58,59,60,61,62,63,64,65,66,67,68,69,70,71,73,74,75,76,77,78,79,80,88,91,39,40,41,43,44,45,46,47,48,49,50,51,52,53,54,55,56,57,58,59,60,61,62,63,64,65,66,67,68,70,71,72,73,74,75,76,77,78,79,80,81,82,84,85,87,88,89,91,40,41,42,43,44,45,46,47,48,50,51,52,53,54,56,58,59,60,61,62,63,64,65,66,67,68,69,70,72,73,77,78,79,81,82,83,86,88,89,41,44,45,46,47,48,49,50,51,52,53,54,55,57,58,59,60,61,62,63,64,66,67,71,72,73,76,77,78,81,88,89,42,43,44,45,46,47,48,49,51,52,53,54,55,56,57,58,59,60,61,62,63,64,65,66,67,68,69,70,72,73,77,78,79,81,82,83,86,88,89,43,44,45,46,47,48,49,50,51,52,53,54,55,56,57,58,59,60,61,62,63,64,65,66,67,68,70,71,72,73,74,75,76,77,78,79,80,81,82,84,85,87,88,89,91,44,45,46,47,48,49,50,51,52,53,54,55,57,58,59,60,61,62,63,64,66,67,69,71,72,73,75,76,77,78,81,83,88,89,91,46,47,48,49,51,52,53,54,55,56,57,58,59,60,61,62,63,64,65,66,67,68,69,70,71,72,73,75,76,77,78,79,80,81,82,83,86,88,89,91,46,47,48,49,51,52,53,54,55,56,57,58,59,60,61,62,63,64,65,66,67,68,69,70,71,72,73,75,76,77,78,79,80,81,82,83,86,88,89,91,47,48,49,50,51,52,53,54,55,56,57,59,60,64,65,67,68,69,70,71,72,73,74,75,76,77,78,79,80,81,82,83,84,85,86,87,48,49,50,51,52,53,54,55,56,57,58,59,60,61,62,63,64,65,66,67,68,70,71,72,73,74,76,77,78,79,80,81,82,84,85,87,88,89,49,50,51,52,53,54,55,56,57,58,59,60,61,62,63,64,66,67,69,71,72,75,76,77,78,79,80,81,88,89,91,50,51,52,53,54,56,57,58,59,60,61,62,63,64,65,66,67,68,69,70,72,73,74,76,77,78,79,80,81,82,83,84,85,86,87,88,89,90,51,52,53,54,55,56,57,58,59,60,61,62,63,64,65,66,67,68,69,70,71,72,73,75,76,77,78,79,80,81,82,83,86,88,89,91,52,53,54,55,56,57,58,59,60,61,62,63,65,68,69,70,71,72,73,74,75,76,77,79,82,83,84,88,53,54,55,56,57,58,59,61,62,64,65,67,68,69,70,71,72,74,75,76,78,80,81,84,85,87,54,55,56,57,58,59,60,61,62,63,65,68,69,70,71,72,74,75,76,77,79,82,84,88,55,56,57,58,59,60,61,62,63,64,65,66,67,68,69,71,72,73,74,75,76,77,79,80,83,84,88,91,56,57,58,59,60,61,62,63,64,65,66,67,68,69,70,72,73,74,76,77,78,79,80,81,82,83,84,85,86,87,88,89,90,57,58,59,60,61,62,63,64,65,66,67,68,69,70,71,72,73,74,75,76,77,78,80,81,83,84,85,87,88,89,91,58,59,60,61,62,63,64,65,66,67,68,69,70,71,72,73,74,75,77,78,79,81,82,83,86,88,89,91,59,60,62,64,65,67,68,69,70,71,72,73,74,75,76,77,78,79,80,81,82,83,84,85,86,87,90,60,61,62,63,64,65,66,68,69,70,71,72,73,74,75,76,77,78,81,83,84,85,88,89,91,61,62,63,64,65,66,67,68,69,70,71,72,74,75,76,77,78,80,81,84,85,87,88,89,91,62,64,65,67,68,69,70,71,72,73,74,75,76,77,78,79,80,81,82,83,84,85,86,87,88,89,90,64,65,67,68,69,70,71,72,73,74,75,76,77,78,79,80,81,82,83,84,85,86,87,88,89,64,65,67,68,69,70,71,72,73,74,75,76,77,78,79,80,81,82,83,84,85,86,87,88,89,90,65,68,69,70,71,72,73,74,75,76,77,79,82,83,84,88,66,67,69,71,72,73,75,76,77,78,79,80,81,83,88,89,91,67,68,69,70,71,72,73,74,75,76,77,78,79,80,81,82,83,84,85,86,87,88,89,90,68,69,70,71,72,73,74,75,76,77,78,79,81,82,83,84,85,86,88,89,91,69,70,71,72,73,75,76,77,78,79,80,81,82,83,86,88,89,91,70,71,72,73,74,75,76,77,78,79,80,81,82,84,85,87,88,89,91,71,72,73,74,75,76,77,78,79,80,81,83,84,85,87,88,89,91,72,73,74,76,77,78,79,80,81,82,83,84,85,86,87,88,89,90,73,74,75,76,77,78,79,80,82,84,85,87,88,91,74,75,76,77,78,79,80,81,82,84,85,87,88,89,91,75,76,77,78,79,80,81,82,83,86,88,89,91,76,77,78,79,80,81,82,83,84,85,86,87,88,89,90,77,78,79,81,82,83,84,85,86,88,89,91,78,79,80,81,82,83,84,85,86,87,90,91,79,80,82,83,84,88,91,80,81,83,84,85,87,88,89,91,81,82,83,84,85,86,88,89,91,82,83,84,85,87,88,91,83,84,85,87,88,89,91,84,85,87,88,89,91,86,88,89,91,86,88,89,91,87,88,89,91,88,89,91,90,91,90,91,91];

USEFUL_RES = [{},
	{2,3,6,8},
	{2,3,4,6,8,10},
	{2,3,4,6,8,10},
	{1,2,4,5,9,10,11},
	{1,2,4,5,9,10,11},
	{1,2,4,6,7,10},
	{1,2,3,4,5,6,8,9,10,11},
	{1,2,4,5,9,10,11},
	{1,2,4,5,9,10,11},
	{2,3,6,8},
	{1,2,4,5,9,10,11},
	{1,2,4,10},
	{1,2,4,5,9,10,11},
	{1,2,3,4,6,8,10},
	{1,2,3,4,5,6,7,8,9,10,11},
	{1,2,3,4,5,6,8,9,10,11},
	{1,4,10},
	{1,2,4,5,9,10,11},
	{1,2,4,5,9,10,11},
	{1,2,4,5,9,10,11},
	{1,2,3,4,5,6,8,9,10,11},
	{1,2,4,5,9,10,11},
	{1,2,3,4,5,6,7,8,9,10,11},
	{1,2,3,4,5,6,8,9,10,11},
	{1,2,3,4,5,6,8,9,10,11},
	{1,2,3,4,5,6,7,8,9,10,11},
	{1,2,4,10},
	{2,3,4,6,8,10},
	{2,3,4,6,7,8,10},
	{1,2,4,10},
	{6,7,10},
	{2,3,4,6,7,8,10},
	{1,2,3,4,5,6,8,9,10,11},
	{1,2,4,5,9,10,11},
	{1,2,4,5,6,7,9,10,11},
	{1,2,4,5,6,7,9,10,11},
	{1,2,4,5,9,10,11},
	{1,2,3,4,5,6,7,8,9,10,11},
	{1,2,4,10},
	{1,2,4,5,9,10,11},
	{2,3,4,6,8,10},
	{1,2,3,4,5,6,8,9,10,11},
	{1,2,4,5,9,10,11},
	{2,3,4,6,7,8,10},
	{1,2,3,4,6,7,8,10},
	{1,2,4,5,9,10,11},
	{2,3,6,8},
	{1,2,3,4,5,6,8,9,10,11},
	{2,3,4,5,6,8,10},
	{1,2,3,4,5,6,8,9,10,11},
	{1,2,4,6,7,10},
	{1,2,4,5,9,10,11},
	{1,2,4,5,9,10,11},
	{1,2,4,5,6,7,9,10,11},
	{1,2,4,5,9,10,11},
	{1,2,4,10},
	{1,2,4,5,9,10,11},
	{1,4,10},
	{1,2,4,5,6,7,9,10,11},
	{1,2,3,4,5,6,8,9,10,11},
	{2,3,4,6,8,10},
	{1,2,3,4,5,6,7,8,9,10,11},
	{1,2,4,5,9,10,11},
	{1,2,4,5,6,7,9,10,11},
	{1,2,3,4,5,6,8,9,10,11},
	{1,2,3,4,6,8,10},
	{6,7,10},
	{1,2,3,4,6,7,8,10},
	{1,2,3,4,5,6,8,9,10,11},
	{1,2,3,4,5,6,8,9,10,11},
	{1,2,3,4,5,6,8,9,10,11},
	{2,3,6,8},
	{1,2,3,4,5,6,8,9,10,11},
	{2,3,4,6,8,10},
	{1,2,4,5,9,10,11},
	{2,3,4,6,8,10},
	{1,2,4,5,9,10,11},
	{1,2,4,5,9,10,11},
	{1,2,4,5,6,7,9,10,11},
	{1,2,3,4,5,6,8,9,10,11},
	{1,2,3,4,6,8,10},
	{10},
	{6,7,10},
	{1,2,3,4,5,6,8,9,10,11},
	{2,3,4,6,7,8,10},
	{1,2,3,4,5,6,8,9,10,11},
	{1,2,3,4,5,6,8,9,10,11},
	{6,7,10},
	{6,7,10},
	{2,3,4,6,7,8,10},
	{}];

POTENTIAL_ACT = [{5,6,7,8,9,10,12,13,14,15,16,17,18,19,20,21,22,23,24,25,26,27,28,31,34,35,36,37,38,39,40,41,43,44,46,47,49,51,52,53,54,55,56,57,58,59,60,61,63,64,65,66,67,69,70,71,72,74,76,78,79,80,81,82,85,87,88},
	{2,3,4,5,6,7,8,9,10,11,12,13,14,15,16,17,19,20,21,22,23,24,25,26,27,28,29,30,31,33,34,35,36,37,38,39,40,41,42,43,44,45,46,47,48,49,50,51,52,53,54,55,56,57,58,60,61,62,63,64,65,66,67,69,70,71,72,73,74,75,76,77,78,79,80,81,82,85,86,87,88,91},
	{2,3,4,8,11,15,16,17,22,24,25,26,27,29,30,33,34,39,42,43,45,46,48,49,50,51,61,62,63,66,67,69,70,71,72,73,74,75,77,81,82,85,86,87,88,91},
	{3,4,5,6,7,8,9,10,12,13,14,15,16,17,18,19,20,21,22,23,24,25,26,27,28,29,30,31,33,34,35,36,37,38,39,40,41,42,43,44,45,46,47,49,50,51,52,53,54,55,56,57,58,59,60,61,62,63,64,65,66,67,69,70,71,72,74,75,76,77,78,79,80,81,82,85,86,87,88,91},
	{5,6,8,9,10,12,14,16,17,19,20,21,22,23,24,25,26,27,34,35,36,37,38,39,41,43,44,47,49,50,51,53,54,55,56,58,60,61,63,64,65,66,70,71,72,74,76,78,79,80,81,85,87,88},
	{2,3,4,7,8,11,15,16,17,22,24,25,26,27,29,30,32,33,34,36,37,39,42,43,45,46,48,49,50,51,52,55,60,61,62,63,65,66,67,68,69,70,71,72,73,74,75,77,80,81,82,84,85,86,87,88,89,90,91},
	{7,16,24,27,30,32,33,36,37,39,45,46,52,55,60,63,65,68,69,80,84,86,89,90,91},
	{2,3,4,8,11,15,16,17,22,24,25,26,27,29,30,33,34,39,42,43,45,46,48,49,50,51,61,62,63,66,67,69,70,71,72,73,74,75,77,81,82,85,86,87,88,91},
	{5,6,8,9,10,12,14,16,17,19,20,21,22,23,24,25,26,27,34,35,36,37,38,39,41,43,44,47,49,51,53,54,55,56,58,60,61,63,64,65,66,70,71,72,74,76,78,79,80,81,85,87,88},
	{3,4,5,6,7,8,9,10,12,13,14,15,16,17,18,19,20,21,22,23,24,25,26,27,28,29,30,31,32,33,34,35,36,37,38,39,40,41,42,43,44,45,46,47,49,50,51,52,53,54,55,56,57,58,59,60,61,62,63,64,65,66,67,68,69,70,71,72,74,75,76,77,78,79,80,81,82,83,84,85,86,87,88,89,90,91},
	{5,6,8,9,10,12,14,16,17,19,20,21,22,23,24,25,26,27,34,35,36,37,38,39,41,43,44,47,49,51,53,54,55,56,58,60,61,63,64,65,66,70,71,72,74,76,78,79,80,81,85,87,88}];
